27 69 30 51 71 65 35 
28 76 33 81 9 66 20 70 
12 29 78 34 79 3 77 68 
83 8 45 84 17 60 89 
5 61 86 16 85 91 93 96 
87 41 22 74 
31 62 11 64 49 46 48 
52 88 7 82 18 1 50 
47 36 19 63 90 32 10 
94 59 99 6 
40 21 73 56 4 26 
72 75 23 67 39 25 55 54 24 80 
2 42 15 43 57 58 
53 
95 92 98 44 38 14 100 37 97 13 
